(set-logic HORN)
(declare-fun state (Int Int (Array Int Int) Int Int (Array Int Int) Bool) Bool)
(assert (forall ((|A_0| Int) (|C_0| Int) (|E_0| (Array Int Int)) (|B_0| Int) (|D_0| Int) (|F_0| (Array Int Int)) (|.loc.8| Bool) (|.loc.15| Bool) (|.y.14| (Array Int Int)) (|.y.12| Int) (|.y.11| (Array Int Int)) (|.y.9| Int) (|.y.10| Int) (|.y.13| Int)) (=> (and (and (and (= C_0 D_0) (= E_0 F_0)) (= A_0 B_0)) (not .loc.8)) (state |A_0| |C_0| |E_0| |B_0| |D_0| |F_0| |.loc.8|))))
(assert (forall ((|A_0| Int) (|C_0| Int) (|E_0| (Array Int Int)) (|B_0| Int) (|D_0| Int) (|F_0| (Array Int Int)) (|.loc.8| Bool) (|.loc.15| Bool) (|.y.14| (Array Int Int)) (|.y.12| Int) (|.y.11| (Array Int Int)) (|.y.9| Int) (|.y.10| Int) (|.y.13| Int)) (=> (and (state |A_0| |C_0| |E_0| |B_0| |D_0| |F_0| |.loc.8|) (let ((.def_25 (not (= E_0 F_0)))) (let ((.def_26 (or (not (= C_0 D_0)) .def_25))) (let ((.def_27 (select F_0 D_0))) (let ((.def_28 (= B_0 .def_27))) (let ((.def_33 (+ C_0 (* (- 1) D_0)))) (let ((.def_36 (or .def_25 (not (= .def_33 1))))) (let ((.def_37 (not .def_28))) (let ((.def_40 (select F_0 (+ D_0 1)))) (let ((.def_41 (= B_0 .def_40))) (let ((.def_44 (= .def_27 0))) (let ((.def_45 (not .def_44))) (let ((.def_52 (and .def_37 .def_45))) (let ((.def_55 (select F_0 (+ D_0 2)))) (let ((.def_56 (= B_0 .def_55))) (let ((.def_58 (= .def_40 0))) (let ((.def_59 (not .def_58))) (let ((.def_61 (not .def_41))) (let ((.def_66 (or .def_25 (not (= C_0 0))))) (let ((.def_68 (and .def_61 (and .def_52 .def_59)))) (let ((.def_70 (not .def_56))) (let ((.def_72 (= .def_55 0))) (let ((.def_82 (select E_0 C_0))) (let ((.def_83 (= A_0 .def_82))) (let ((.def_85 (not .def_83))) (let ((.def_86 (and .def_28 .def_85))) (let ((.def_87 (= .def_82 0))) (let ((.def_91 (or .def_25 (not (= D_0 0))))) (let ((.def_94 (and .def_37 .def_85))) (let ((.def_96 (and .def_45 (and .def_41 .def_94)))) (let ((.def_100 (or .def_25 (not (= D_0 (- 1)))))) (let ((.def_103 (and .def_45 .def_94))) (let ((.def_106 (and .def_61 (and .def_59 (and .def_56 .def_103))))) (let ((.def_111 (or .def_25 (not (= D_0 (- 2)))))) (let ((.def_115 (and .def_37 (and .def_25 .def_85)))) (let ((.def_116 (and .def_45 .def_115))) (let ((.def_120 (and .def_72 (and .def_70 (and .def_61 (and .def_59 .def_116)))))) (let ((.def_124 (and .def_61 (and .def_58 .def_116)))) (let ((.def_127 (and .def_44 .def_115))) (let ((.def_131 (select E_0 (+ C_0 1)))) (let ((.def_132 (= A_0 .def_131))) (let ((.def_136 (or .def_25 (not (= .def_33 (- 1)))))) (let ((.def_138 (not .def_87))) (let ((.def_142 (and .def_37 (and .def_26 .def_85)))) (let ((.def_158 (and .def_70 (and .def_61 (and .def_59 .def_103))))) (let ((.def_159 (and .def_72 .def_158))) (let ((.def_164 (or .def_25 (not (= C_0 (- 1)))))) (let ((.def_168 (and .def_61 (and .def_58 .def_103)))) (let ((.def_173 (and .def_44 .def_94))) (let ((.def_179 (and .def_138 (and .def_86 .def_91)))) (let ((.def_180 (= .def_131 0))) (let ((.def_182 (not .def_132))) (let ((.def_186 (and .def_138 (and .def_96 .def_100)))) (let ((.def_191 (and .def_138 (and .def_106 .def_111)))) (let ((.def_195 (and .def_120 .def_138))) (let ((.def_199 (and .def_124 .def_138))) (let ((.def_203 (and .def_127 .def_138))) (let ((.def_209 (not .def_180))) (let ((.def_210 (and (and .def_182 (and .def_86 .def_138)) .def_209))) (let ((.def_213 (or .def_25 (not (= .def_33 (- 2)))))) (let ((.def_216 (select E_0 (+ C_0 2)))) (let ((.def_217 (= A_0 .def_216))) (let ((.def_237 (and .def_209 (and .def_182 (and .def_138 .def_159))))) (let ((.def_241 (or .def_25 (not (= C_0 (- 2)))))) (let ((.def_246 (and .def_209 (and .def_182 (and .def_138 .def_168))))) (let ((.def_252 (and .def_209 (and .def_182 (and .def_138 .def_173))))) (let ((.def_258 (not .def_217))) (let ((.def_259 (and (and .def_209 (and .def_179 .def_182)) .def_258))) (let ((.def_260 (= .def_216 0))) (let ((.def_265 (and .def_258 (and .def_209 (and .def_182 .def_186))))) (let ((.def_270 (and .def_258 (and .def_209 (and .def_182 .def_191))))) (let ((.def_275 (and .def_258 (and .def_209 (and .def_182 .def_195))))) (let ((.def_280 (and .def_258 (and .def_209 (and .def_182 .def_199))))) (let ((.def_285 (and .def_258 (and .def_209 (and .def_182 .def_203))))) (let ((.def_295 (not .def_260))) (let ((.def_298 (select E_0 (+ C_0 3)))) (let ((.def_299 (= A_0 .def_298))) (let ((.def_323 (or .def_25 (not (= C_0 (- 3)))))) (let ((.def_337 (not .def_299))) (let ((.def_339 (= .def_298 0))) (let ((.def_370 (not .loc.15))) (let ((.def_373 (= F_0 .y.14))) (let ((.def_376 (= B_0 .y.12))) (let ((.def_379 (= E_0 .y.11))) (let ((.def_382 (= A_0 .y.9))) (let ((.def_387 (= (+ C_0 (* (- 1) .y.10)) (- 3)))) (let ((.def_392 (= (+ D_0 (* (- 1) .y.13)) (- 3)))) (let ((.def_394 (not .def_339))) (let ((.def_396 (not .def_72))) (and (not .loc.8) (or (or (or (and (or (or (or (or (or (or (or (or (or (or (or (or (or (or (or (or (or (or (or (or (or (or (or (or (or (or (or (or (or (or (or (or (or (or (or (or (or (or (or (or (or (or (and (or (or (or (or (or (and .def_26 .def_28) (and (and (and .def_36 .def_37) .def_41) .def_45)) (and (and (and (and (or .def_25 (not (= .def_33 2))) .def_52) .def_56) .def_59) .def_61)) (and (and (and .def_66 .def_68) .def_70) .def_72)) (and .def_66 (and .def_61 (and .def_52 .def_58)))) (and .def_66 (and .def_37 .def_44))) .def_83) (and (and .def_86 .def_87) .def_91)) (and (and .def_87 .def_96) .def_100)) (and (and .def_87 .def_106) .def_111)) (and .def_87 .def_120)) (and .def_87 .def_124)) (and .def_87 .def_127)) (and (and (and .def_86 .def_132) .def_136) .def_138)) (and .def_138 (and .def_132 (and .def_45 (and .def_41 .def_142))))) (and .def_138 (and .def_132 (and .def_61 (and .def_59 (and .def_56 (and .def_45 (and .def_36 .def_94)))))))) (and (and .def_138 (and .def_132 .def_159)) .def_164)) (and .def_164 (and .def_138 (and .def_132 .def_168)))) (and .def_164 (and .def_138 (and .def_132 .def_173)))) (and (and .def_179 .def_180) .def_182)) (and .def_182 (and .def_180 .def_186))) (and .def_182 (and .def_180 .def_191))) (and .def_182 (and .def_180 .def_195))) (and .def_182 (and .def_180 .def_199))) (and .def_182 (and .def_180 .def_203))) (and (and .def_210 .def_213) .def_217)) (and .def_217 (and .def_209 (and .def_182 (and .def_138 (and .def_96 .def_136)))))) (and .def_217 (and .def_209 (and .def_182 (and .def_138 (and .def_61 (and .def_59 (and .def_56 (and .def_45 .def_142))))))))) (and (and .def_217 .def_237) .def_241)) (and .def_241 (and .def_217 .def_246))) (and .def_241 (and .def_217 .def_252))) (and .def_259 .def_260)) (and .def_260 .def_265)) (and .def_260 .def_270)) (and .def_260 .def_275)) (and .def_260 .def_280)) (and .def_260 .def_285)) (and (and (and (or .def_25 (not (= .def_33 (- 3)))) (and .def_210 .def_258)) .def_295) .def_299)) (and .def_299 (and .def_295 (and .def_258 (and .def_213 (and .def_209 (and .def_182 (and .def_96 .def_138)))))))) (and .def_299 (and .def_295 (and .def_258 (and .def_209 (and .def_182 (and .def_138 (and .def_106 .def_136)))))))) (and (and .def_299 (and .def_295 (and .def_237 .def_258))) .def_323)) (and .def_323 (and .def_299 (and .def_295 (and .def_246 .def_258))))) (and .def_323 (and .def_299 (and .def_295 (and .def_252 .def_258))))) (and (and (and .def_259 .def_295) .def_337) .def_339)) (and .def_339 (and .def_337 (and .def_265 .def_295)))) (and .def_339 (and .def_337 (and .def_270 .def_295)))) (and .def_339 (and .def_337 (and .def_275 .def_295)))) (and .def_339 (and .def_337 (and .def_280 .def_295)))) (and .def_339 (and .def_337 (and .def_285 .def_295)))) .loc.15) (and (and (and (and (and (and (and (and (and (and .def_337 (and .def_295 (and .def_258 (and .def_209 (and .def_182 (and .def_138 .def_158)))))) .def_370) .def_373) .def_376) .def_379) .def_382) .def_387) .def_392) .def_394) .def_396)) (and (or .def_58 (or .def_41 (or .def_72 (or .def_56 (or .def_28 .def_44))))) (and (= D_0 .y.13) (and .def_394 (and .def_387 (and .def_382 (and .def_379 (and .def_376 (and .def_373 (and .def_370 (and .def_337 (and .def_295 (and .def_258 (and .def_209 (and .def_182 (and .def_85 .def_138)))))))))))))))) (and (or .def_180 (or .def_132 (or .def_339 (or .def_299 (or .def_260 (or .def_217 (or .def_83 .def_87))))))) (and (= C_0 .y.10) (and .def_396 (and .def_392 (and .def_382 (and .def_379 (and .def_376 (and .def_373 (and .def_370 (and .def_68 .def_70))))))))))))))))))))))))))))))))))))))))))))))))))))))))))))))))))))))))))))))))))))))))))))))))))))) (state |.y.9| |.y.10| |.y.11| |.y.12| |.y.13| |.y.14| |.loc.15|))))
(assert (forall ((|A_0| Int) (|C_0| Int) (|E_0| (Array Int Int)) (|B_0| Int) (|D_0| Int) (|F_0| (Array Int Int)) (|.loc.8| Bool) (|.loc.15| Bool) (|.y.14| (Array Int Int)) (|.y.12| Int) (|.y.11| (Array Int Int)) (|.y.9| Int) (|.y.10| Int) (|.y.13| Int)) (=> (state |A_0| |C_0| |E_0| |B_0| |D_0| |F_0| |.loc.8|) (not .loc.8))))
(check-sat)
